c Lingeling SAT Solver
c 
c Version ala b02aa1a04343558c4252b5f4a723be021964f652
c 
c Copyright (C) 2010-2012 Armin Biere JKU Linz Austria.
c All rights reserved.
c 
c released Sat Oct 13 14:05:26 CEST 2012
c compiled Sat Feb 16 02:48:12 EST 2013
c 
c gcc (Debian 4.4.5-8) 4.4.5
c -Wall -O3 -DNLGLOG -DNDEBUG -DNCHKSOL -DNLGLPICOSAT 
c Linux greencar2 2.6.32-5-amd64 x86_64
c 
c reading input file p16.cnf
c no embedded options
c found 'p cnf 205651 638606' header
c read 205651 variables, 638606 clauses, 1327909 literals in 0.0 seconds
c
c feature vars 205651
c feature lits.total 1327909
c feature lits.pos 706631
c feature lits.neg 621278
c feature clauses.total 638606
c feature clauses.unit 76751
c feature clauses.bin 449007
c feature clauses.trn 111448
c feature clauses.lrg 1400
c feature cog.val.min 1
c feature cog.val.avg 91698
c feature cog.val.max 198409
c feature cog.var.min 1
c feature cog.var.avg 102826
c feature cog.var.max 205650
c
c
c --abstime=0
c --acts=2
c --actavgmax=120
c --actstdmin=20
c --actstdmax=80
c --agile=23
c --bias=2
c --block=1
c --blkrtc=0
c --blkclslim=2000
c --blkocclim=2000
c --blkmaxeff=2147483647
c --blkmineff=10000000
c --blkreleff=20
c --card=0
c --cce=3
c --ccemaxeff=100000000
c --ccemineff=5000000
c --ccereleff=3
c --check=0
c --cgrclsr=1
c --cgrmaxority=20
c --cgrmaxeff=8000000
c --cgrmineff=200000
c --cgreleff=1
c --cgrexteq=1
c --cgrextand=1
c --cgrextunits=1
c --cgrextite=1
c --cgrextxor=1
c --cliff=1
c --cliffreleff=8
c --cliffmineff=10000000
c --cliffmaxeff=100000000
c --compact=0
c --decompose=1
c --defragint=10000000
c --defragfree=50
c --elim=1
c --elmrtc=0
c --elmblk=1
c --elmclslim=1000
c --elmocclim=1000
c --elmaxeff=100000000
c --elmineff=5000000
c --elmreleff=10
c --sleeponabort=0
c --exitonabort=0
c --flipping=1
c --flipint=2
c --flipdur=50
c --fliptop=1
c --force=0
c --gauss=1
c --gaussextrall=1
c --gaussmaxor=20
c --gaussexptrn=1
c --gaussmaxeff=50000000
c --gaussmineff=2000000
c --gaussreleff=2
c --gluescale=2
c --gluekeep=0
c --inprocessing=1
c --cintinc=10000
c --irrlim=20
c --lift=1
c --lftmaxeff=20000000
c --lftmineff=500000
c --lftreleff=6
c --lhbr=1
c --lkhd=1
c --clim=-1
c --mocint=1000
c --move=2
c --log=-1
c --otfs=1
c --phase=0
c --phaseneginit=0
c --plain=0
c --probe=1
c --prbasicmaxeff=100000000
c --prbasicmineff=1000000
c --prbasicreleff=10
c --prbasic=1
c --prbasicroundlim=9
c --queuemergelim=10000
c --queuefactor=833
c --queueinc=20
c --rmincpen=4
c --seed=0
c --smallirr=90
c --smallve=1
c --smallvevars=12
c --randec=1
c --randecint=1000
c --redfixed=0
c --redlbound=0
c --redlexpfac=10
c --redldoutfac=0
c --redloutinc=10000
c --redlinit=1000
c --redlinc=1000
c --redinoutinc=100
c --redlmininc=10
c --redlmaxinc=200
c --redlminrel=10
c --redlmaxrel=300
c --redlminabs=500
c --redlmaxabs=1000000
c --reduce=1
c --restart=2
c --restartint=5
c --rstinoutinc=110
c --simplify=1
c --simpdelay=100
c --simpen=4
c --sizepen=1000000
c --sizemaxpen=3
c --sortlits=0
c --syncint=111111
c --termint=122222
c --ternres=1
c --ternresrtc=0
c --trnrmineff=4000000
c --trnrmaxeff=40000000
c --trnreleff=10
c --transred=1
c --trdmineff=100000
c --trdmaxeff=2000000
c --trdreleff=10
c --unhide=1
c --unhdextstamp=1
c --unhdhbr=0
c --unhdmaxeff=20000000
c --unhdmineff=1000000
c --unhdreleff=4
c --unhdlnpr=3
c --unhdroundlim=5
c --verbose=1
c --witness=1
c [limits] no conflict limit
c [limits] simplification delayed by 100 to 100 conflicts
c 
c  seconds         irredundant          redundant clauses agility   height
c          variables clauses conflicts large binary ternary    glue         MB
c 
c *    0.0  114048   480189         0       0      0     0  60  0.0   0.0   40
c [cut-width] 160179, max 246927, min4 110632 at 75%, min10 28400 at 85%
c [decision-order] bias 1, old 1
c [queue-schedule-all-variables]
c s    0.0  114048   480189         0       0      0     0  60  0.0   0.0   40
c [simplification-1] limit hit at 100 conflicts
c [simplification-1] simplification penalty of 4
c [ternres-1] limit 4000000 with penalty 0 = 0 + 0
c [ternres-1] all 114048 free variables schedulable
c [ternres-1] 0 ternary resolvents (0 bin, 0 trn)
c [ternres-1] 21994 variables remain 19% (92054 retained)
c [gauss-1] limit 2000000 penalty 0 = 0 + 0
c [gauss-1] extracted 163793 xors of average arity 2.0
c [gauss-1] connected 327588 occurrences of 92928 variables (average 3.5)
c [gauss-1] limit 2000000 penalty 0 = 0 + 0
c [gauss-1] exported 0 unary, 0 binary and 0 ternary equations
c G    0.6  114048   461327       100     100      0     0  65  3.8 347.6   26
c d    0.7   52872   240727       100     100      0     0  65  3.8 347.6   20
c [basicprobe-1] limit 1000000 penalty 0 = 0 + 0
c [basicprobe-1-0] 3476 probes remain 7% after last round
c [basicprobe-1-0] 1 units = 1 failed (100%) + 0 lifted (0%)
c [basicprobe-1-0] removed 1 variables, found 11526 hbrs
c p    0.8   52871   240727       100     100  11526     0  65  3.8 347.6   24
c [cgrclsr-1] limit 200000 penalty 0 = 0 + 0
c [cgrclsr-1] all 52871 free variables schedulable
c [cgrclsr-1] fully completed congruence closure
c [lift-1] limit 500000 with penalty 0 = 0 + 0
c [lift-1] using 52871 probes 100%
c [lift-1] 52839 variables remain 100% (32 retained)
c [cliff-1] limit of 10000000 steps penalty 0 = 0 + 0
c [cliff-1] failed 0, lifted 0
c [unhide-1] limit 1000000 with penalty 0 = 0 + 0
c [unhide-1-1] 0 units, 0 failed, 18973 tauts, 0 hbrs, 47 literals
c u    1.4   52871   221749       100      99  21101     1  65  3.8 347.6   24
c [transred-1] limit 100000 with penalty 0 = 0 + 0
c t    1.4   52871   221749       100      99  21095     1  65  3.8 347.6   24
c [block-1] scheduling all variables this time
c [block-1] scheduled 52871 variables 100%
c [block-1] limit of 10000000 steps penalty 0 = 0 + 0
c [block-1] fully completed blocked clause elimination
c [block-1] transition to [ all 0 rem 0 ] state
c [block-1] eliminated 3800 blocked clauses
c k    1.5   52871   217949       100      99  21095  3801  65  3.8 347.6   20
c [cce-1] scheduling all variables this time
c [cce-1] limit of 10000000 steps penalty 0 = 0 + 0
c [cce-1] incomplete covered clause elimination 47557 not tried 90%
c [cce-1] transition to [ all 1 rem 1 ] state
c [cce-1] eliminated 96 covered clauses
c E    1.9   52869   217853       100      99  26366  3800  65  3.8 347.6   20
c [elim-1] scheduling all variables this time
c [elim-1] scheduled 52869 variables 100%
c [elim-1] limit of 5000000 steps penalty 0 = 0 + 0
c [elim-1] incomplete variable elimination 38911 not tried 74%
c [elim-1] transition to [ all 1 rem 1 ] state
c [elim-1] eliminated 5491 = 10% variables out of 52869
c e    2.8   47378   214487       100      47   8470   463  65  3.8 347.6   20
c [phase-1] phase bias: 1774 positive 14%, 11133 negative 86%
c [simplification-1] removed 66670 variables 58%
c [simplification-1] limit increments divided by 30
c [simplification-1] arithmetic increase of conflict limit interval by 333
c [simplification-1] new irredundant limit 2096426
c [simplification-1] new conflict limit 433
c [simplification-1] simplification penalty reduced to 3
c [simplification-2] limit hit at 433 conflicts
c [simplification-2] simplification penalty of 3
c [ternres-2] limit 2000000 with penalty 1 = 1 + 0
c [ternres-2] 9137 schedulable variables 19%
c [ternres-2] 11 ternary resolvents (0 bin, 11 trn)
c [ternres-2] fully completed ternary resolution
c T    2.9   47378   214487       433     301   8493   530  26  3.5 520.0   24
c [gauss-2] limit 1000000 penalty 1 = 1 + 0
c [gauss-2] extracted 368 xors of average arity 3.0
c [gauss-2] connected 1104 occurrences of 879 variables (average 1.3)
c [gauss-2] limit 1000000 penalty 1 = 1 + 0
c [gauss-2] fully completed
c [gauss-2] exported 0 unary, 0 binary and 0 ternary equations
c G    3.0   47378   214487       433     301   8493   530  26  3.5 520.0   20
c [basicprobe-2] limit 1000000 penalty 0 = 0 + 0
c [basicprobe-2-0] 3086 probes remain 7% after last round
c [basicprobe-2-0] removed 0 variables, found 692 hbrs
c p    3.1   47378   214487       433     301   9185   524  26  3.5 520.0   24
c [cgrclsr-2] limit 100000 penalty 1 = 1 + 0
c [cgrclsr-2] all 47378 free variables schedulable
c [cgrclsr-2] fully completed congruence closure
c [lift-2] limit 250000 with penalty 1 = 1 + 0
c [lift-2] using 47349 probes 100%
c [lift-2] 47332 variables remain 100% (46 retained)
c [cliff-2] limit of 5000000 steps penalty 1 = 1 + 0
c [cliff-2] failed 0, lifted 0
c [unhide-2] limit 1000000 with penalty 0 = 0 + 0
c [unhide-2-2] 0 units, 0 failed, 791 tauts, 0 hbrs, 68 literals
c u    3.5   47378   214483       433     299   8522   522  26  3.5 520.0   24
c [transred-3] limit 100000 with penalty 0 = 0 + 0
c t    3.5   47378   214483       433     299   8515   522  26  3.5 520.0   24
c [block-2] scheduling all variables this time
c [block-2] scheduled 47378 variables 100%
c [block-2] limit of 10000000 steps penalty 0 = 0 + 0
c [block-2] fully completed blocked clause elimination
c [block-2] transition to [ all 0 rem 0 ] state
c [block-2] eliminated 0 blocked clauses
c [cce-2] 44765 variables 94% will be scheduled this time
c [cce-2] limit of 10000000 steps penalty 0 = 0 + 0
c [cce-2] 44216 variables 93% remain to be tried next time
c [cce-2] transition to [ all 0 rem 1 ] state
c [cce-2] eliminated 259 covered clauses
c E    3.9   47378   214224       433     299   8776   522  26  3.5 520.0   20
c [elim-2] 38846 variables 82% will be scheduled this time
c [elim-2] scheduled 38846 variables 82%
c [elim-2] limit of 5000000 steps penalty 0 = 0 + 0
c [elim-2] 28859 variables 61% remain to be tried next time
c [elim-2] transition to [ all 0 rem 1 ] state
c [elim-2] eliminated 770 = 2% variables out of 47378
c e    4.9   46608   213982       433     295   6849   522  26  3.5 520.0   20
c [phase-2] phase bias: 0 positive 0%, 0 negative 0%
c [simplification-2] removed 770 variables 1%
c [simplification-2] no reduction of limit increments
c [simplification-2] arithmetic increase of conflict limit interval by 10000
c [simplification-2] new irredundant limit 2096426
c [simplification-2] new conflict limit 10766
c [simplification-2] simplification penalty reduced to 2
c R    5.1   46608   213982       985     797   6864   552   6  7.6 296.1   24
c -    5.2   46608   213982      1272     503   6888   605   4  6.9 244.4   24
c 1    5.4   46608   213982      1774     931   6900   661   3  6.7 243.5   24
c 
c  seconds         irredundant          redundant clauses agility   height
c          variables clauses conflicts large binary ternary    glue         MB
c 
c blkd: 2 bces, 3800 removed, 1257897 resolutions, 3523119 steps
c blkd: 3800 blocking literals 1%, 0 pure
c cces: 2 cces, 327 eliminated, 327 ate 100%, 0 abce 0%
c cces: 11726 probed, 1 lifted, 2 failed
c clff: 2 cliffs, 0 lifted, 0 failed
c clff: 5420 decisions, 15012682 steps
c clls: 1 sat, 0 simp, 0 freeze, 0 melt
c clls: 1966515 add, 0 assume,, 0 deref, 0 failed
c clls: 0 cassume, 0 mosat
c coll: 12 gcs, 0 rescored clauses
c cgrs: 2 count, 300000 esteps, 61020 csteps
c cgrs: 0 eqs, 0 units
c cgrs: 0 matched (0 ands 0%, 0 xors 0%, 0 ites 0%)
c cgrs: 0 simplified (0 ands 0%, 0 xors 0%, 0 ites 0%)
c cgrs: 1890 extracted (1590 ands 84%, 300 xors 16%, 0 ites 0%)
c dcps: 2 decompositions, 61176 equivalent 30%
c decs: 27012 decision, 24 random 0.089%
c decs: 5922 flipped 21.924% (in 11 phases)
c elms: 2 elims, 6261 eliminated 3%
c elms: 6261 small 100%, 0 large 0%
c elms: 24112 tried small, 6261 succeeded 26%, 17851 failed 74%
c elms: 0 subsumed, 0 strengthened, 0 blocked
c elms: 316916 copies, 220581 resolutions, 649021 ipos
c elms: 0 subchks, 0 strchks
c frcs: 0 computed, 26.0 - 74.0 average min-cut range
c gaus: 2 extractions, 164161 extracted, 2.0 size, 3 max
c gaus: exported 0 units, 0 binary and 0 ternary equations
c gaus: 0 gc, 6000094 steps, 3000047 extr 50%, 2188536 elim 36%
c glue: 6.7 avg, 2.5 scaled avg
c glue: 0 maxredglue=15 (0%)
c lift: 2 phases, 294 probed (98 level1 33%, 196 level2 67%)
c lift: 0 units, 0 equivalences, 1 implications
c hbrs: 27131 hbrs = 27131 trn 100% + 0 lrg 0%, 9 sub 0%
c lrnd: 1761 clauses, 1145 uips 65%, 20.7 length, 6.7 glue
c ints: 125 luby (11692 steps), 0 inout (0 steps)
c mins: 36423 learned lits, 5% minimized
c move: moved 4127, 327 binary 8%, 3800 ternary 92%
c otfs: str 51 dyn (39 red, 12 irr) 13 drv 25%, 38 rst 75%
c otfs: sub 0 dyn (0 red, 0 irr)
c phas: 2 computed, 13012 set, 1774 pos (14%), 11238 neg (86%)
c prbs: 2 basic, 2373 probed, 1 failed, 0 lifted
c prps: 9418971 props, 122 props/dec
c prps: 35% srch, 65% simp, 0% lkhd
c psns: 164541 searches, 19048 hits, 12% hit rate
c queu: 6730 new, 2342 del, 120 maximum priority
c queu: 4364 merged, 1005 collected, 2 gcs
c queu: 1812 deprioritized, 24.0 lines on average
c reds: 1 count, 0 reset, 1 acts 100%, 0 exp 0%
c reds: 1 arithmetic 100%, 1 double 100%
c rmbd: 4 removed, 0 red 0%
c rsts: 75 restarts 60%, 49 skipped 40%
c rsts: 12 kept 16.0% average 52.0%
c simp: 2 count (0 ilim 0%, 0 plim 0%, 2 clim 100%)
c trnr: 2 count, 0 bin, 11 trn, 4791445 steps
c tops: 91606 fixed 45%, 0 iterations
c trds: 4 transitive reductions, 13 removed, 0 failed
c trds: 187 nodes, 251 edges, 200238 steps
c unhd: 2 count, 2 rounds, 2257787 steps
c unhd: 0 non-trivial sccs of average size 0.0
c unhd: 0 units, 0 bin, 0 trn, 0 lrg
c unhd: 0 failed, 0 stamp, 0 lits, 0 bin, 0 trn, 0 lrg
c unhd: 19764 tauts, 0 bin 0%, 0 trn 0%, 0 lrg 0%
c unhd: 19764 tauts, 19764 stamp 100%, 791 red 4%
c unhd: 0 hbrs, 0 trn 0%, 0 lrg 0%, 0 red 0%
c unhd: 115 strd, 0 bin 0%, 0 trn 0%, 115 lrg 100%, 115 red 100%
c vars: 46608 remaining 23% and 159043 removed 77% out of 205651
c vars: 91606 fixed 45%, 6261 eliminated 3%, 61176 equivalent 30%
c vsts: 43703822 visits, 37% srch, 63% simp, 0% lkhd
c vsts: 4.9 search visits per propagation 9011.2 per conflict
c wchs: 7510879 pushed, 3398629 enlarged, 20 defrags
c 
c scaledglue  added       reduced       forcing      resolved     conflicts
c 
c all      1493 100       502 100      4512 100      2720 100       216 100
c 
c  0          0   0         0   0         0   0         0   0         0   0 
c  1         26   2         0   0        38   1        33   1         1   0 
c  2        647  43       219  44      2001  44      1070  39        90  42 
c  3        450  30<      181  36<     1525  34<      840  31<       70  32<
c  4        246  16        72  14       727  16       516  19        35  16 
c  5         62   4        23   5       103   2        98   4         3   1 
c  6         27   2         4   1        65   1        79   3         8   4 
c  7         35   2         3   1        53   1        84   3         9   4 
c  8          0   0         0   0         0   0         0   0         0   0 
c  9          0   0         0   0         0   0         0   0         0   0 
c 10          0   0         0   0         0   0         0   0         0   0 
c 11          0   0         0   0         0   0         0   0         0   0 
c 12          0   0         0   0         0   0         0   0         0   0 
c 13          0   0         0   0         0   0         0   0         0   0 
c 14          0   0         0   0         0   0         0   0         0   0 
c 15          0   0         0   0         0   0         0   0         0   0 
c 
c avg             2.9           2.8           2.8           3.1           3.0
c std             1.2           1.0           1.0           1.2           1.3
c 
c 27012 decisions, 1774 conflicts, 328.0 conflicts/sec
c 9418971 propagations, 1.7 megaprops/sec
c 5.4 seconds, 47.0 MB
c 
c    0.072   1% analysis
c    0.224   4% block
c    0.004   0% bump
c    0.000   0% card
c    0.700  13% cce
c    0.472   9% cliff
c    0.012   0% cutwidth
c    0.016   0% decide
c    0.000   0% force
c    0.476   9% gc
c    0.200   4% cgrclsr
c    0.200   4% decomp
c    0.132   2% defrag
c    1.872  35% elim
c    0.556  10% gauss
c    0.168   3% lift
c    0.016   0% mincls
c    0.044   1% phase
c    0.116   2% probe
c    0.004   0% reduce
c    0.032   1% restart
c    0.076   1% ternres
c    0.012   0% transred
c    0.156   3% unhide
c ==================================
c    0.016   0% preprocessing     0%
c    4.876  90% inprocessing    100%
c ==================================
c    4.892  90% simplifying
c    0.000   0% lookahead
c    0.508   9% search
c ==================================
c    5.408 100% all
c
s SATISFIABLE
